# Objective value = 1.0178630000000001e+04
I_0_0 3884
I_0_1 4.9460000000000018e+03
I_0_2 4.1930000000000018e+03
I_0_3 5.7240000000000045e+03
I_1_0 198
I_1_1 198
I_1_2 99
I_1_3 0
I_2_0 56
I_2_1 7.7715611723760958e-15
I_2_2 5.5999999999999979e+01
I_2_3 1.0491607582707729e-14
I_3_0 196
I_3_1 196
I_3_2 98.0000000000004
I_3_3 4.0145664570445661e-13
I_4_0 98
I_4_1 0
I_4_2 9.7999999999999986e+01
I_4_3 0
I_5_0 86
I_5_1 43
I_5_2 86
I_5_3 4.2999999999999993e+01
I_6_0 96
I_6_1 96
I_6_2 96
I_6_3 -7.66053886991358e-15
I_7_0 55
I_7_1 0
I_7_2 55
I_7_3 0
I_8_0 14
I_8_1 2.9143354396410359e-16
I_8_2 1.3999999999999996e+01
I_8_3 2.9143354396410359e-16
I_9_0 84
I_9_1 42
I_9_2 84
I_9_3 42
I_10_0 176
I_10_1 176
I_10_2 88
I_10_3 0
I_11_0 36
I_11_1 1.7999999999999993e+01
I_11_2 3.5999999999999993e+01
I_11_3 1.7999999999999993e+01
I_12_0 164
I_12_1 8.2000000000000057e+01
I_12_2 164
I_12_3 82
I_13_0 16
I_13_1 0
I_13_2 16
I_13_3 0
I_14_0 158
I_14_1 79
I_14_2 158
I_14_3 7.8999999999999972e+01
I_15_0 45
I_15_1 1.1709383462843448e-14
I_15_2 4.4999999999999979e+01
I_15_3 1.1709383462843448e-14
I_16_0 98
I_16_1 49
I_16_2 9.8000000000000014e+01
I_16_3 4.8999999999999986e+01
I_17_0 46
I_17_1 0
I_17_2 4.5999999999999993e+01
I_17_3 6.7029715111743826e-15
I_18_0 48
I_18_1 7.66053886991358e-15
I_18_2 4.7999999999999979e+01
I_18_3 7.3274719625260332e-15
I_19_0 128
I_19_1 64
I_19_2 128
I_19_3 6.3999999999999993e+01
I_20_0 64
I_20_1 6.3999999999999829e+01
I_20_2 64
I_20_3 1.5376588891058418e-14
I_21_0 64
I_21_1 32
I_21_2 64
I_21_3 32
I_22_0 82
I_22_1 4.1000000000000036e+01
I_22_2 8.1999999999999957e+01
I_22_3 4.0999999999999957e+01
I_23_0 14
I_23_1 1.0005885009434223e-14
I_23_2 14
I_23_3 1.9428902930940239e-15
I_24_0 44
I_24_1 0
I_24_2 44
I_24_3 0
I_25_0 40
I_25_1 0
I_25_2 40
I_25_3 0
I_26_0 70
I_26_1 3.5000000000000057e+01
I_26_2 6.9999999999999915e+01
I_26_3 3.4999999999999936e+01
I_27_0 37
I_27_1 1.6431300764452317e-14
I_27_2 37
I_27_3 0
I_28_0 36
I_28_1 0
I_28_2 36
I_28_3 0
I_29_0 56
I_29_1 28
I_29_2 56
I_29_3 28
I_30_0 48
I_30_1 4.7999999999999886e+01
I_30_2 2.4000000000000110e+01
I_30_3 1.1057821325266559e-13
q_1_0 9.8999999999999986e+01
q_1_1 0
q_1_2 0
q_2_0 7.7715611723760958e-15
q_2_1 1.1199999999999997e+02
q_2_2 3.1807889655510735e-14
q_3_0 98
q_3_1 4.0145664570445661e-13
q_3_2 0
q_4_0 0
q_4_1 196
q_4_2 1.4210854715202004e-14
q_5_0 0
q_5_1 86
q_5_2 0
q_6_0 96
q_6_1 96
q_6_2 -7.66053886991358e-15
q_7_0 0
q_7_1 110
q_7_2 0
q_8_0 2.9143354396410359e-16
q_8_1 2.7999999999999996e+01
q_8_2 3.8441472227646045e-15
q_9_0 0
q_9_1 84
q_9_2 0
q_10_0 88
q_10_1 0
q_10_2 0
q_11_0 -6.9944050551384862e-15
q_11_1 36
q_11_2 0
q_12_0 5.9174887212520844e-14
q_12_1 1.6399999999999994e+02
q_12_2 -2.2204460492503068e-15
q_13_0 0
q_13_1 32
q_13_2 0
q_14_0 0
q_14_1 158
q_14_2 -2.4868995751603507e-14
q_15_0 1.1709383462843448e-14
q_15_1 8.9999999999999972e+01
q_15_2 3.3025665535646453e-14
q_16_0 0
q_16_1 98
q_16_2 -2.4202861936828413e-14
q_17_0 0
q_17_1 92
q_17_2 1.3808398868775384e-14
q_18_0 7.66053886991358e-15
q_18_1 9.5999999999999972e+01
q_18_2 2.8643754035329039e-14
q_19_0 0
q_19_1 128
q_19_2 0
q_20_0 6.3999999999999829e+01
q_20_1 6.4000000000000171e+01
q_20_2 1.5376588891058418e-14
q_21_0 0
q_21_1 64
q_21_2 0
q_22_0 3.8691272408186705e-14
q_22_1 8.1999999999999943e+01
q_22_2 0
q_23_0 1.0005885009434223e-14
q_23_1 2.7999999999999989e+01
q_23_2 1.9428902930940239e-15
q_24_0 0
q_24_1 88
q_24_2 0
q_25_0 0
q_25_1 80
q_25_2 0
q_26_0 5.4400928206632670e-14
q_26_1 6.9999999999999844e+01
q_26_2 3.1974423109204508e-14
q_27_0 1.6431300764452317e-14
q_27_1 7.3999999999999986e+01
q_27_2 0
q_28_0 0
q_28_1 72
q_28_2 0
q_29_0 0
q_29_1 56
q_29_2 0
q_30_0 2.3999999999999886e+01
q_30_1 2.2470914018413168e-13
q_30_2 0
y_0_0 1
y_0_1 1
y_0_2 2.92300905702092e-16
y_1_0 9.9999999999999989e-01
y_1_1 0
y_1_2 0
y_2_0 1.3877787807814457e-16
y_2_1 9.9999999999999967e-01
y_2_2 1.8735013540549517e-16
y_3_0 1
y_3_1 4.0106806764583780e-15
y_3_2 0
y_4_0 0
y_4_1 9.9999999999999989e-01
y_4_2 0
y_5_0 0
y_5_1 1
y_5_2 0
y_6_0 1
y_6_1 1
y_6_2 -7.9797279894933126e-17
y_7_0 0
y_7_1 1
y_7_2 0
y_8_0 2.0816681711721685e-17
y_8_1 9.9999999999999978e-01
y_8_2 2.0816681711721685e-17
y_9_0 0
y_9_1 1
y_9_2 0
y_10_0 1
y_10_1 0
y_10_2 0
y_11_0 -3.8857805861880479e-16
y_11_1 1
y_11_2 0
y_12_0 7.2164496600635175e-16
y_12_1 9.9999999999999967e-01
y_12_2 0
y_13_0 0
y_13_1 1
y_13_2 0
y_14_0 0
y_14_1 1
y_14_2 -3.0531133177191805e-16
y_15_0 2.6020852139652106e-16
y_15_1 9.9999999999999956e-01
y_15_2 2.6020852139652106e-16
y_16_0 0
y_16_1 1
y_16_2 0
y_17_0 0
y_17_1 9.9999999999999989e-01
y_17_2 1.4571677198205180e-16
y_18_0 1.5959455978986625e-16
y_18_1 9.9999999999999956e-01
y_18_2 1.5265566588595902e-16
y_19_0 0
y_19_1 9.9999999999999989e-01
y_19_2 0
y_20_0 9.9999999999999734e-01
y_20_1 1
y_20_2 2.4025920142278778e-16
y_21_0 0
y_21_1 1
y_21_2 0
y_22_0 9.43689570931383e-16
y_22_1 9.9999999999999911e-01
y_22_2 0
y_23_0 7.1470607210244452e-16
y_23_1 1
y_23_2 1.3877787807814457e-16
y_24_0 0
y_24_1 1
y_24_2 0
y_25_0 0
y_25_1 1
y_25_2 0
y_26_0 1.5543122344752192e-15
y_26_1 9.9999999999999767e-01
y_26_2 2.1510571102112408e-16
y_27_0 4.4408920985006262e-16
y_27_1 1
y_27_2 0
y_28_0 0
y_28_1 1
y_28_2 0
y_29_0 0
y_29_1 1
y_29_2 0
y_30_0 9.9999999999999534e-01
y_30_1 4.6213033400022141e-15
y_30_2 0
x_0_1_0 1.0000000000000007e+00
x_0_1_1 0
x_0_1_2 7.9797279894933126e-17
x_0_2_0 0
x_0_2_1 0
x_0_2_2 0
x_0_3_0 0
x_0_3_1 0
x_0_3_2 0
x_0_4_0 0
x_0_4_1 0
x_0_4_2 0
x_0_5_0 0
x_0_5_1 0
x_0_5_2 0
x_0_6_0 0
x_0_6_1 0
x_0_6_2 0
x_0_7_0 0
x_0_7_1 0
x_0_7_2 0
x_0_8_0 0
x_0_8_1 0
x_0_8_2 0
x_0_9_0 0
x_0_9_1 0
x_0_9_2 0
x_0_10_0 0
x_0_10_1 0
x_0_10_2 0
x_0_11_0 0
x_0_11_1 0
x_0_11_2 0
x_0_12_0 0
x_0_12_1 0
x_0_12_2 0
x_0_13_0 0
x_0_13_1 0
x_0_13_2 0
x_0_14_0 0
x_0_14_1 0
x_0_14_2 0
x_0_15_0 0
x_0_15_1 0
x_0_15_2 0
x_0_16_0 0
x_0_16_1 0
x_0_16_2 0
x_0_17_0 0
x_0_17_1 0
x_0_17_2 0
x_0_18_0 0
x_0_18_1 0
x_0_18_2 0
x_0_19_0 0
x_0_19_1 0
x_0_19_2 0
x_0_20_0 1.0000000000000002e+00
x_0_20_1 1.0000000000000042e+00
x_0_20_2 4.8051840284557557e-16
x_0_21_0 0
x_0_21_1 0
x_0_21_2 0
x_0_22_0 0
x_0_22_1 0
x_0_22_2 0
x_0_23_0 0
x_0_23_1 0
x_0_23_2 0
x_0_24_0 0
x_0_24_1 9.9999999999999567e-01
x_0_24_2 -3.9898639947466563e-17
x_0_25_0 0
x_0_25_1 0
x_0_25_2 0
x_0_26_0 0
x_0_26_1 0
x_0_26_2 0
x_0_27_0 0
x_0_27_1 0
x_0_27_2 0
x_0_28_0 0
x_0_28_1 8.8817841970012523e-16
x_0_28_2 0
x_0_29_0 0
x_0_29_1 3.0487765090292385e-16
x_0_29_2 0
x_0_30_0 0
x_0_30_1 0
x_0_30_2 -3.9898639947466563e-17
x_1_2_0 0
x_1_2_1 0
x_1_2_2 0
x_1_3_0 0
x_1_3_1 0
x_1_3_2 0
x_1_4_0 0
x_1_4_1 0
x_1_4_2 0
x_1_5_0 0
x_1_5_1 0
x_1_5_2 0
x_1_6_0 0.999999999999998
x_1_6_1 0
x_1_6_2 0
x_1_7_0 0
x_1_7_1 0
x_1_7_2 0
x_1_8_0 0
x_1_8_1 0
x_1_8_2 0
x_1_9_0 0
x_1_9_1 0
x_1_9_2 0
x_1_10_0 8.3266726846886741e-16
x_1_10_1 0
x_1_10_2 -7.9797279894933126e-17
x_1_11_0 0
x_1_11_1 0
x_1_11_2 0
x_1_12_0 0
x_1_12_1 0
x_1_12_2 0
x_1_13_0 0
x_1_13_1 0
x_1_13_2 0
x_1_14_0 0
x_1_14_1 0
x_1_14_2 0
x_1_15_0 0
x_1_15_1 0
x_1_15_2 0
x_1_16_0 0
x_1_16_1 0
x_1_16_2 0
x_1_17_0 0
x_1_17_1 0
x_1_17_2 0
x_1_18_0 0
x_1_18_1 0
x_1_18_2 0
x_1_19_0 0
x_1_19_1 0
x_1_19_2 0
x_1_20_0 0
x_1_20_1 0
x_1_20_2 0
x_1_21_0 0
x_1_21_1 0
x_1_21_2 0
x_1_22_0 0
x_1_22_1 0
x_1_22_2 0
x_1_23_0 0
x_1_23_1 0
x_1_23_2 0
x_1_24_0 4.4408920985006262e-16
x_1_24_1 3.3306690738754696e-16
x_1_24_2 0
x_1_25_0 0
x_1_25_1 0
x_1_25_2 0
x_1_26_0 0
x_1_26_1 0
x_1_26_2 0
x_1_27_0 0
x_1_27_1 0
x_1_27_2 0
x_1_28_0 0
x_1_28_1 0
x_1_28_2 0
x_1_29_0 0
x_1_29_1 0
x_1_29_2 0
x_1_30_0 0
x_1_30_1 -3.3306690738754696e-16
x_1_30_2 0
x_2_3_0 0
x_2_3_1 0
x_2_3_2 0
x_2_4_0 0
x_2_4_1 0
x_2_4_2 0
x_2_5_0 0
x_2_5_1 -3.7470027081099033e-16
x_2_5_2 0
x_2_6_0 0
x_2_6_1 0
x_2_6_2 0
x_2_7_0 0
x_2_7_1 0
x_2_7_2 0
x_2_8_0 0
x_2_8_1 0
x_2_8_2 0
x_2_9_0 0
x_2_9_1 1
x_2_9_2 0
x_2_10_0 0
x_2_10_1 0
x_2_10_2 0
x_2_11_0 0
x_2_11_1 0
x_2_11_2 0
x_2_12_0 0
x_2_12_1 0
x_2_12_2 0
x_2_13_0 3.7470027081099033e-16
x_2_13_1 1
x_2_13_2 3.7470027081099033e-16
x_2_14_0 0
x_2_14_1 0
x_2_14_2 0
x_2_15_0 0
x_2_15_1 0
x_2_15_2 0
x_2_16_0 0
x_2_16_1 0
x_2_16_2 0
x_2_17_0 0
x_2_17_1 0
x_2_17_2 0
x_2_18_0 0
x_2_18_1 0
x_2_18_2 0
x_2_19_0 0
x_2_19_1 0
x_2_19_2 0
x_2_20_0 0
x_2_20_1 0
x_2_20_2 0
x_2_21_0 0
x_2_21_1 0
x_2_21_2 0
x_2_22_0 0
x_2_22_1 0
x_2_22_2 0
x_2_23_0 0
x_2_23_1 0
x_2_23_2 0
x_2_24_0 0
x_2_24_1 0
x_2_24_2 0
x_2_25_0 0
x_2_25_1 0
x_2_25_2 0
x_2_26_0 0
x_2_26_1 0
x_2_26_2 0
x_2_27_0 0
x_2_27_1 0
x_2_27_2 0
x_2_28_0 0
x_2_28_1 0
x_2_28_2 0
x_2_29_0 0
x_2_29_1 0
x_2_29_2 0
x_2_30_0 0
x_2_30_1 0
x_2_30_2 0
x_3_4_0 0
x_3_4_1 0
x_3_4_2 0
x_3_5_0 0
x_3_5_1 0
x_3_5_2 0
x_3_6_0 1.0000000000000007e+00
x_3_6_1 4.0106806764583780e-15
x_3_6_2 0
x_3_7_0 0
x_3_7_1 0
x_3_7_2 0
x_3_8_0 0
x_3_8_1 0
x_3_8_2 0
x_3_9_0 0
x_3_9_1 0
x_3_9_2 0
x_3_10_0 9.9999999999999911e-01
x_3_10_1 0
x_3_10_2 0
x_3_11_0 0
x_3_11_1 0
x_3_11_2 0
x_3_12_0 7.8409501114151681e-16
x_3_12_1 0
x_3_12_2 0
x_3_13_0 0
x_3_13_1 0
x_3_13_2 0
x_3_14_0 0
x_3_14_1 0
x_3_14_2 0
x_3_15_0 0
x_3_15_1 0
x_3_15_2 0
x_3_16_0 0
x_3_16_1 0
x_3_16_2 0
x_3_17_0 0
x_3_17_1 0
x_3_17_2 0
x_3_18_0 0
x_3_18_1 0
x_3_18_2 0
x_3_19_0 0
x_3_19_1 0
x_3_19_2 0
x_3_20_0 0
x_3_20_1 0
x_3_20_2 0
x_3_21_0 0
x_3_21_1 0
x_3_21_2 0
x_3_22_0 0
x_3_22_1 0
x_3_22_2 0
x_3_23_0 1.3877787807814457e-16
x_3_23_1 4.1494585545365226e-15
x_3_23_2 0
x_3_24_0 0
x_3_24_1 0
x_3_24_2 0
x_3_25_0 0
x_3_25_1 0
x_3_25_2 0
x_3_26_0 6.4531713306337224e-16
x_3_26_1 0
x_3_26_2 0
x_3_27_0 0
x_3_27_1 0
x_3_27_2 0
x_3_28_0 0
x_3_28_1 0
x_3_28_2 0
x_3_29_0 0
x_3_29_1 0
x_3_29_2 0
x_3_30_0 0
x_3_30_1 0
x_3_30_2 0
x_4_5_0 0
x_4_5_1 -3.95516952522712e-16
x_4_5_2 0
x_4_6_0 0
x_4_6_1 0
x_4_6_2 0
x_4_7_0 0
x_4_7_1 0
x_4_7_2 0
x_4_8_0 0
x_4_8_1 1
x_4_8_2 0
x_4_9_0 0
x_4_9_1 0
x_4_9_2 0
x_4_10_0 0
x_4_10_1 0
x_4_10_2 0
x_4_11_0 2.7755575615628914e-16
x_4_11_1 1
x_4_11_2 0
x_4_12_0 0
x_4_12_1 0
x_4_12_2 0
x_4_13_0 0
x_4_13_1 0
x_4_13_2 0
x_4_14_0 0
x_4_14_1 0
x_4_14_2 0
x_4_15_0 -4.3021142204224816e-16
x_4_15_1 -2.9837243786801082e-16
x_4_15_2 0
x_4_16_0 0
x_4_16_1 0
x_4_16_2 0
x_4_17_0 0
x_4_17_1 0
x_4_17_2 0
x_4_18_0 0
x_4_18_1 0
x_4_18_2 0
x_4_19_0 0
x_4_19_1 0
x_4_19_2 0
x_4_20_0 0
x_4_20_1 0
x_4_20_2 0
x_4_21_0 0
x_4_21_1 0
x_4_21_2 0
x_4_22_0 0
x_4_22_1 0
x_4_22_2 0
x_4_23_0 0
x_4_23_1 0
x_4_23_2 0
x_4_24_0 0
x_4_24_1 0
x_4_24_2 0
x_4_25_0 0
x_4_25_1 0
x_4_25_2 0
x_4_26_0 0
x_4_26_1 0
x_4_26_2 0
x_4_27_0 0
x_4_27_1 0
x_4_27_2 0
x_4_28_0 0
x_4_28_1 0
x_4_28_2 0
x_4_29_0 0
x_4_29_1 0
x_4_29_2 0
x_4_30_0 0
x_4_30_1 0
x_4_30_2 0
x_5_6_0 0
x_5_6_1 0
x_5_6_2 0
x_5_7_0 0
x_5_7_1 0
x_5_7_2 0
x_5_8_0 2.0816681711721685e-17
x_5_8_1 1
x_5_8_2 2.0816681711721685e-17
x_5_9_0 0
x_5_9_1 0
x_5_9_2 0
x_5_10_0 0
x_5_10_1 0
x_5_10_2 0
x_5_11_0 0
x_5_11_1 0
x_5_11_2 0
x_5_12_0 0
x_5_12_1 0
x_5_12_2 0
x_5_13_0 0
x_5_13_1 1.0000000000000009e+00
x_5_13_2 -3.7470027081099033e-16
x_5_14_0 0
x_5_14_1 0
x_5_14_2 0
x_5_15_0 0
x_5_15_1 0
x_5_15_2 4.4408920985006262e-16
x_5_16_0 -2.0816681711721685e-17
x_5_16_1 0
x_5_16_2 0
x_5_17_0 0
x_5_17_1 0
x_5_17_2 0
x_5_18_0 0
x_5_18_1 0
x_5_18_2 0
x_5_19_0 0
x_5_19_1 0
x_5_19_2 0
x_5_20_0 0
x_5_20_1 0
x_5_20_2 0
x_5_21_0 0
x_5_21_1 0
x_5_21_2 0
x_5_22_0 0
x_5_22_1 0
x_5_22_2 0
x_5_23_0 0
x_5_23_1 0
x_5_23_2 0
x_5_24_0 0
x_5_24_1 0
x_5_24_2 0
x_5_25_0 0
x_5_25_1 0
x_5_25_2 0
x_5_26_0 0
x_5_26_1 0
x_5_26_2 0
x_5_27_0 0
x_5_27_1 0
x_5_27_2 0
x_5_28_0 0
x_5_28_1 0
x_5_28_2 0
x_5_29_0 0
x_5_29_1 0
x_5_29_2 0
x_5_30_0 0
x_5_30_1 0
x_5_30_2 0
x_6_7_0 0
x_6_7_1 0
x_6_7_2 0
x_6_8_0 0
x_6_8_1 0
x_6_8_2 0
x_6_9_0 0
x_6_9_1 0
x_6_9_2 0
x_6_10_0 0
x_6_10_1 0
x_6_10_2 0
x_6_11_0 0
x_6_11_1 0
x_6_11_2 0
x_6_12_0 0
x_6_12_1 0
x_6_12_2 0
x_6_13_0 0
x_6_13_1 0
x_6_13_2 0
x_6_14_0 0
x_6_14_1 9.9999999999999689e-01
x_6_14_2 -6.1062266354383610e-16
x_6_15_0 0
x_6_15_1 0
x_6_15_2 0
x_6_16_0 0
x_6_16_1 0
x_6_16_2 0
x_6_17_0 0
x_6_17_1 0
x_6_17_2 0
x_6_18_0 0
x_6_18_1 0
x_6_18_2 0
x_6_19_0 0
x_6_19_1 0
x_6_19_2 0
x_6_20_0 0
x_6_20_1 0
x_6_20_2 0
x_6_21_0 0
x_6_21_1 0
x_6_21_2 0
x_6_22_0 3.7470027081099033e-16
x_6_22_1 0
x_6_22_2 0
x_6_23_0 0
x_6_23_1 0
x_6_23_2 0
x_6_24_0 0
x_6_24_1 0
x_6_24_2 0
x_6_25_0 0
x_6_25_1 0
x_6_25_2 0
x_6_26_0 6.6613381477509392e-16
x_6_26_1 2.3592239273284576e-16
x_6_26_2 4.3021142204224816e-16
x_6_27_0 5.5511151231257827e-17
x_6_27_1 9.9999999999999833e-01
x_6_27_2 0
x_6_28_0 0
x_6_28_1 0
x_6_28_2 0
x_6_29_0 0
x_6_29_1 0
x_6_29_2 0
x_6_30_0 0
x_6_30_1 0
x_6_30_2 0
x_7_8_0 0
x_7_8_1 0
x_7_8_2 0
x_7_9_0 0
x_7_9_1 1
x_7_9_2 0
x_7_10_0 0
x_7_10_1 0
x_7_10_2 0
x_7_11_0 0
x_7_11_1 0
x_7_11_2 0
x_7_12_0 0
x_7_12_1 0
x_7_12_2 0
x_7_13_0 0
x_7_13_1 0
x_7_13_2 0
x_7_14_0 0
x_7_14_1 0
x_7_14_2 0
x_7_15_0 0
x_7_15_1 0
x_7_15_2 0
x_7_16_0 0
x_7_16_1 0
x_7_16_2 0
x_7_17_0 0
x_7_17_1 0
x_7_17_2 0
x_7_18_0 0
x_7_18_1 9.9999999999999989e-01
x_7_18_2 0
x_7_19_0 0
x_7_19_1 0
x_7_19_2 0
x_7_20_0 0
x_7_20_1 0
x_7_20_2 0
x_7_21_0 0
x_7_21_1 2.4980018054066022e-16
x_7_21_2 0
x_7_22_0 0
x_7_22_1 0
x_7_22_2 0
x_7_23_0 0
x_7_23_1 0
x_7_23_2 0
x_7_24_0 0
x_7_24_1 0
x_7_24_2 0
x_7_25_0 0
x_7_25_1 0
x_7_25_2 0
x_7_26_0 0
x_7_26_1 0
x_7_26_2 0
x_7_27_0 0
x_7_27_1 0
x_7_27_2 0
x_7_28_0 0
x_7_28_1 0
x_7_28_2 0
x_7_29_0 0
x_7_29_1 0
x_7_29_2 0
x_7_30_0 0
x_7_30_1 0
x_7_30_2 0
x_8_9_0 0
x_8_9_1 0
x_8_9_2 0
x_8_10_0 0
x_8_10_1 0
x_8_10_2 0
x_8_11_0 -3.8510861166685117e-16
x_8_11_1 -4.1633363423443370e-17
x_8_11_2 -4.85722573273506e-17
x_8_12_0 0
x_8_12_1 0
x_8_12_2 0
x_8_13_0 0
x_8_13_1 0
x_8_13_2 0
x_8_14_0 0
x_8_14_1 0
x_8_14_2 0
x_8_15_0 0
x_8_15_1 0
x_8_15_2 0
x_8_16_0 1.8388068845354155e-16
x_8_16_1 0
x_8_16_2 -2.7755575615628914e-17
x_8_17_0 0
x_8_17_1 0
x_8_17_2 0
x_8_18_0 0
x_8_18_1 0
x_8_18_2 0
x_8_19_0 0
x_8_19_1 0
x_8_19_2 0
x_8_20_0 0
x_8_20_1 0
x_8_20_2 0
x_8_21_0 0
x_8_21_1 0
x_8_21_2 0
x_8_22_0 0
x_8_22_1 0
x_8_22_2 0
x_8_23_0 0
x_8_23_1 0
x_8_23_2 0
x_8_24_0 0
x_8_24_1 0
x_8_24_2 0
x_8_25_0 0
x_8_25_1 0
x_8_25_2 0
x_8_26_0 0
x_8_26_1 0
x_8_26_2 0
x_8_27_0 0
x_8_27_1 0
x_8_27_2 0
x_8_28_0 0
x_8_28_1 0
x_8_28_2 0
x_8_29_0 0
x_8_29_1 0
x_8_29_2 0
x_8_30_0 0
x_8_30_1 0
x_8_30_2 0
x_9_10_0 0
x_9_10_1 0
x_9_10_2 0
x_9_11_0 0
x_9_11_1 0
x_9_11_2 0
x_9_12_0 0
x_9_12_1 0
x_9_12_2 0
x_9_13_0 0
x_9_13_1 0
x_9_13_2 0
x_9_14_0 0
x_9_14_1 0
x_9_14_2 0
x_9_15_0 0
x_9_15_1 0
x_9_15_2 0
x_9_16_0 0
x_9_16_1 0
x_9_16_2 0
x_9_17_0 0
x_9_17_1 0
x_9_17_2 0
x_9_18_0 0
x_9_18_1 0
x_9_18_2 0
x_9_19_0 0
x_9_19_1 0
x_9_19_2 0
x_9_20_0 0
x_9_20_1 0
x_9_20_2 0
x_9_21_0 0
x_9_21_1 0
x_9_21_2 0
x_9_22_0 0
x_9_22_1 0
x_9_22_2 0
x_9_23_0 0
x_9_23_1 0
x_9_23_2 0
x_9_24_0 0
x_9_24_1 0
x_9_24_2 0
x_9_25_0 0
x_9_25_1 0
x_9_25_2 0
x_9_26_0 0
x_9_26_1 0
x_9_26_2 0
x_9_27_0 0
x_9_27_1 0
x_9_27_2 0
x_9_28_0 0
x_9_28_1 0
x_9_28_2 0
x_9_29_0 0
x_9_29_1 0
x_9_29_2 0
x_9_30_0 0
x_9_30_1 0
x_9_30_2 0
x_10_11_0 0
x_10_11_1 0
x_10_11_2 0
x_10_12_0 0
x_10_12_1 0
x_10_12_2 7.9797279894933126e-17
x_10_13_0 0
x_10_13_1 0
x_10_13_2 0
x_10_14_0 0
x_10_14_1 0
x_10_14_2 0
x_10_15_0 0
x_10_15_1 0
x_10_15_2 0
x_10_16_0 7.4246164771807344e-16
x_10_16_1 0
x_10_16_2 0
x_10_17_0 0
x_10_17_1 0
x_10_17_2 0
x_10_18_0 0
x_10_18_1 0
x_10_18_2 0
x_10_19_0 0
x_10_19_1 0
x_10_19_2 0
x_10_20_0 0
x_10_20_1 0
x_10_20_2 0
x_10_21_0 0
x_10_21_1 0
x_10_21_2 0
x_10_22_0 0
x_10_22_1 0
x_10_22_2 0
x_10_23_0 1.1241008124329710e-15
x_10_23_1 0
x_10_23_2 0
x_10_24_0 0
x_10_24_1 0
x_10_24_2 0
x_10_25_0 0
x_10_25_1 0
x_10_25_2 0
x_10_26_0 0
x_10_26_1 0
x_10_26_2 0
x_10_27_0 0
x_10_27_1 0
x_10_27_2 0
x_10_28_0 0
x_10_28_1 0
x_10_28_2 0
x_10_29_0 -7.6327832942979512e-17
x_10_29_1 0
x_10_29_2 0
x_10_30_0 9.9999999999999534e-01
x_10_30_1 0
x_10_30_2 0
x_11_12_0 0
x_11_12_1 0
x_11_12_2 0
x_11_13_0 0
x_11_13_1 0
x_11_13_2 0
x_11_14_0 0
x_11_14_1 0
x_11_14_2 0
x_11_15_0 0
x_11_15_1 0
x_11_15_2 0
x_11_16_0 -9.71445146547012e-16
x_11_16_1 1
x_11_16_2 4.85722573273506e-17
x_11_17_0 0
x_11_17_1 0
x_11_17_2 0
x_11_18_0 0
x_11_18_1 0
x_11_18_2 0
x_11_19_0 0
x_11_19_1 0
x_11_19_2 0
x_11_20_0 0
x_11_20_1 0
x_11_20_2 0
x_11_21_0 0
x_11_21_1 0
x_11_21_2 0
x_11_22_0 0
x_11_22_1 0
x_11_22_2 0
x_11_23_0 0
x_11_23_1 0
x_11_23_2 0
x_11_24_0 0
x_11_24_1 0
x_11_24_2 0
x_11_25_0 0
x_11_25_1 0
x_11_25_2 0
x_11_26_0 0
x_11_26_1 0
x_11_26_2 0
x_11_27_0 0
x_11_27_1 0
x_11_27_2 0
x_11_28_0 0
x_11_28_1 0
x_11_28_2 0
x_11_29_0 0
x_11_29_1 0
x_11_29_2 0
x_11_30_0 0
x_11_30_1 0
x_11_30_2 0
x_12_13_0 -3.7470027081099033e-16
x_12_13_1 0
x_12_13_2 0
x_12_14_0 0
x_12_14_1 0
x_12_14_2 0
x_12_15_0 8.3266726846886741e-16
x_12_15_1 9.9999999999999967e-01
x_12_15_2 0
x_12_16_0 0
x_12_16_1 7.2164496600635175e-16
x_12_16_2 0
x_12_17_0 0
x_12_17_1 0
x_12_17_2 0
x_12_18_0 0
x_12_18_1 0
x_12_18_2 0
x_12_19_0 0
x_12_19_1 0
x_12_19_2 0
x_12_20_0 0
x_12_20_1 0
x_12_20_2 0
x_12_21_0 0
x_12_21_1 0
x_12_21_2 0
x_12_22_0 0
x_12_22_1 0
x_12_22_2 0
x_12_23_0 1.6653345369377348e-16
x_12_23_1 9.9999999999999889e-01
x_12_23_2 4.3021142204224816e-16
x_12_24_0 0
x_12_24_1 0
x_12_24_2 0
x_12_25_0 0
x_12_25_1 0
x_12_25_2 0
x_12_26_0 0
x_12_26_1 0
x_12_26_2 0
x_12_27_0 0
x_12_27_1 0
x_12_27_2 0
x_12_28_0 0
x_12_28_1 0
x_12_28_2 0
x_12_29_0 0
x_12_29_1 0
x_12_29_2 0
x_12_30_0 0
x_12_30_1 0
x_12_30_2 0
x_13_14_0 0
x_13_14_1 0
x_13_14_2 0
x_13_15_0 0
x_13_15_1 -6.5919492087118670e-16
x_13_15_2 0
x_13_16_0 0
x_13_16_1 0
x_13_16_2 0
x_13_17_0 0
x_13_17_1 0
x_13_17_2 0
x_13_18_0 0
x_13_18_1 0
x_13_18_2 0
x_13_19_0 0
x_13_19_1 0
x_13_19_2 0
x_13_20_0 0
x_13_20_1 0
x_13_20_2 0
x_13_21_0 0
x_13_21_1 0
x_13_21_2 0
x_13_22_0 0
x_13_22_1 0
x_13_22_2 0
x_13_23_0 0
x_13_23_1 1.7347234759768071e-17
x_13_23_2 0
x_13_24_0 0
x_13_24_1 0
x_13_24_2 0
x_13_25_0 0
x_13_25_1 0
x_13_25_2 0
x_13_26_0 0
x_13_26_1 0
x_13_26_2 0
x_13_27_0 0
x_13_27_1 0
x_13_27_2 0
x_13_28_0 0
x_13_28_1 0
x_13_28_2 0
x_13_29_0 0
x_13_29_1 0
x_13_29_2 0
x_13_30_0 0
x_13_30_1 0
x_13_30_2 0
x_14_15_0 0
x_14_15_1 0
x_14_15_2 0
x_14_16_0 0
x_14_16_1 0
x_14_16_2 0
x_14_17_0 0
x_14_17_1 0
x_14_17_2 0
x_14_18_0 0
x_14_18_1 0
x_14_18_2 0
x_14_19_0 0
x_14_19_1 0
x_14_19_2 0
x_14_20_0 0
x_14_20_1 0
x_14_20_2 0
x_14_21_0 0
x_14_21_1 3.3445468616832841e-15
x_14_21_2 -4.9960036108132044e-16
x_14_22_0 0
x_14_22_1 0
x_14_22_2 2.1510571102112408e-16
x_14_23_0 0
x_14_23_1 0
x_14_23_2 0
x_14_24_0 0
x_14_24_1 0
x_14_24_2 0
x_14_25_0 0
x_14_25_1 0
x_14_25_2 0
x_14_26_0 0
x_14_26_1 9.9999999999999767e-01
x_14_26_2 0
x_14_27_0 0
x_14_27_1 0
x_14_27_2 0
x_14_28_0 0
x_14_28_1 0
x_14_28_2 0
x_14_29_0 0
x_14_29_1 0
x_14_29_2 0
x_14_30_0 0
x_14_30_1 0
x_14_30_2 0
x_15_16_0 0
x_15_16_1 1.0000000000000002e+00
x_15_16_2 0
x_15_17_0 0
x_15_17_1 0
x_15_17_2 0
x_15_18_0 0
x_15_18_1 0
x_15_18_2 0
x_15_19_0 0
x_15_19_1 0
x_15_19_2 0
x_15_20_0 0
x_15_20_1 0
x_15_20_2 0
x_15_21_0 0
x_15_21_1 0
x_15_21_2 0
x_15_22_0 0
x_15_22_1 0
x_15_22_2 0
x_15_23_0 0
x_15_23_1 8.0491169285323849e-16
x_15_23_2 0
x_15_24_0 0
x_15_24_1 0
x_15_24_2 0
x_15_25_0 0
x_15_25_1 0
x_15_25_2 0
x_15_26_0 0
x_15_26_1 0
x_15_26_2 0
x_15_27_0 0
x_15_27_1 0
x_15_27_2 0
x_15_28_0 0
x_15_28_1 0
x_15_28_2 0
x_15_29_0 0
x_15_29_1 0
x_15_29_2 0
x_15_30_0 0
x_15_30_1 0
x_15_30_2 0
x_16_17_0 0
x_16_17_1 0
x_16_17_2 0
x_16_18_0 0
x_16_18_1 0
x_16_18_2 0
x_16_19_0 0
x_16_19_1 0
x_16_19_2 0
x_16_20_0 0
x_16_20_1 0
x_16_20_2 0
x_16_21_0 0
x_16_21_1 0
x_16_21_2 0
x_16_22_0 0
x_16_22_1 0
x_16_22_2 0
x_16_23_0 0
x_16_23_1 -8.6736173798840355e-16
x_16_23_2 0
x_16_24_0 0
x_16_24_1 0
x_16_24_2 0
x_16_25_0 0
x_16_25_1 0
x_16_25_2 0
x_16_26_0 0
x_16_26_1 0
x_16_26_2 0
x_16_27_0 0
x_16_27_1 0
x_16_27_2 0
x_16_28_0 0
x_16_28_1 0
x_16_28_2 0
x_16_29_0 0
x_16_29_1 0
x_16_29_2 0
x_16_30_0 0
x_16_30_1 0
x_16_30_2 0
x_17_18_0 0
x_17_18_1 1
x_17_18_2 2.9143354396410359e-16
x_17_19_0 0
x_17_19_1 0
x_17_19_2 0
x_17_20_0 0
x_17_20_1 0
x_17_20_2 0
x_17_21_0 0
x_17_21_1 -1.8041124150158794e-16
x_17_21_2 0
x_17_22_0 0
x_17_22_1 9.9999999999999944e-01
x_17_22_2 0
x_17_23_0 0
x_17_23_1 8.9164786665207885e-16
x_17_23_2 0
x_17_24_0 0
x_17_24_1 0
x_17_24_2 0
x_17_25_0 0
x_17_25_1 0
x_17_25_2 0
x_17_26_0 0
x_17_26_1 0
x_17_26_2 0
x_17_27_0 0
x_17_27_1 0
x_17_27_2 0
x_17_28_0 0
x_17_28_1 0
x_17_28_2 0
x_17_29_0 0
x_17_29_1 0
x_17_29_2 0
x_17_30_0 0
x_17_30_1 0
x_17_30_2 0
x_18_19_0 0
x_18_19_1 0
x_18_19_2 0
x_18_20_0 0
x_18_20_1 0
x_18_20_2 0
x_18_21_0 0
x_18_21_1 -6.1062266354383610e-16
x_18_21_2 0
x_18_22_0 1.5959455978986625e-16
x_18_22_1 0
x_18_22_2 -1.4571677198205180e-16
x_18_23_0 0
x_18_23_1 0
x_18_23_2 3.6082248300317588e-16
x_18_24_0 0
x_18_24_1 0
x_18_24_2 0
x_18_25_0 0
x_18_25_1 0
x_18_25_2 0
x_18_26_0 1.5959455978986625e-16
x_18_26_1 0
x_18_26_2 0
x_18_27_0 0
x_18_27_1 0
x_18_27_2 0
x_18_28_0 0
x_18_28_1 0
x_18_28_2 0
x_18_29_0 0
x_18_29_1 0
x_18_29_2 0
x_18_30_0 0
x_18_30_1 0
x_18_30_2 0
x_19_20_0 0
x_19_20_1 0
x_19_20_2 0
x_19_21_0 0
x_19_21_1 9.9999999999999656e-01
x_19_21_2 0
x_19_22_0 0
x_19_22_1 0
x_19_22_2 0
x_19_23_0 0
x_19_23_1 0
x_19_23_2 0
x_19_24_0 5.5511151231257827e-17
x_19_24_1 0
x_19_24_2 0
x_19_25_0 0
x_19_25_1 0
x_19_25_2 0
x_19_26_0 0
x_19_26_1 0
x_19_26_2 0
x_19_27_0 -1.1102230246251565e-16
x_19_27_1 3.3306690738754696e-15
x_19_27_2 0
x_19_28_0 0
x_19_28_1 9.9999999999999944e-01
x_19_28_2 0
x_19_29_0 0
x_19_29_1 0
x_19_29_2 0
x_19_30_0 0
x_19_30_1 0
x_19_30_2 0
x_20_21_0 0
x_20_21_1 0
x_20_21_2 0
x_20_22_0 0
x_20_22_1 0
x_20_22_2 0
x_20_23_0 0
x_20_23_1 0
x_20_23_2 0
x_20_24_0 0
x_20_24_1 0
x_20_24_2 0
x_20_25_0 0
x_20_25_1 0
x_20_25_2 0
x_20_26_0 0
x_20_26_1 0
x_20_26_2 0
x_20_27_0 0
x_20_27_1 0
x_20_27_2 0
x_20_28_0 0
x_20_28_1 0
x_20_28_2 0
x_20_29_0 0
x_20_29_1 9.9999999999999556e-01
x_20_29_2 0
x_20_30_0 9.9999999999999534e-01
x_20_30_1 0
x_20_30_2 0
x_21_22_0 0
x_21_22_1 9.9999999999999845e-01
x_21_22_2 4.9960036108132044e-16
x_21_23_0 0
x_21_23_1 0
x_21_23_2 0
x_21_24_0 0
x_21_24_1 0
x_21_24_2 0
x_21_25_0 0
x_21_25_1 0
x_21_25_2 0
x_21_26_0 0
x_21_26_1 0
x_21_26_2 0
x_21_27_0 0
x_21_27_1 0
x_21_27_2 0
x_21_28_0 0
x_21_28_1 0
x_21_28_2 0
x_21_29_0 0
x_21_29_1 0
x_21_29_2 0
x_21_30_0 0
x_21_30_1 0
x_21_30_2 0
x_22_23_0 0
x_22_23_1 -7.3205330686221259e-16
x_22_23_2 0
x_22_24_0 0
x_22_24_1 0
x_22_24_2 0
x_22_25_0 0
x_22_25_1 0
x_22_25_2 0
x_22_26_0 8.8817841970012523e-16
x_22_26_1 0
x_22_26_2 0
x_22_27_0 0
x_22_27_1 0
x_22_27_2 0
x_22_28_0 0
x_22_28_1 0
x_22_28_2 0
x_22_29_0 0
x_22_29_1 0
x_22_29_2 0
x_22_30_0 0
x_22_30_1 0
x_22_30_2 0
x_23_24_0 0
x_23_24_1 0
x_23_24_2 0
x_23_25_0 0
x_23_25_1 0
x_23_25_2 0
x_23_26_0 0
x_23_26_1 9.9999999999999767e-01
x_23_26_2 0
x_23_27_0 0
x_23_27_1 0
x_23_27_2 0
x_23_28_0 0
x_23_28_1 0
x_23_28_2 0
x_23_29_0 0
x_23_29_1 0
x_23_29_2 0
x_23_30_0 0
x_23_30_1 0
x_23_30_2 0
x_24_25_0 0
x_24_25_1 0
x_24_25_2 0
x_24_26_0 0
x_24_26_1 0
x_24_26_2 0
x_24_27_0 0
x_24_27_1 1
x_24_27_2 0
x_24_28_0 0
x_24_28_1 0
x_24_28_2 0
x_24_29_0 0
x_24_29_1 0
x_24_29_2 0
x_24_30_0 0
x_24_30_1 4.5657921887709563e-15
x_24_30_2 3.9898639947466563e-17
x_25_26_0 0
x_25_26_1 0
x_25_26_2 0
x_25_27_0 0
x_25_27_1 0
x_25_27_2 0
x_25_28_0 0
x_25_28_1 1
x_25_28_2 0
x_25_29_0 0
x_25_29_1 1
x_25_29_2 0
x_25_30_0 0
x_25_30_1 0
x_25_30_2 0
x_26_27_0 1.0061396160665481e-15
x_26_27_1 0
x_26_27_2 0
x_26_28_0 0
x_26_28_1 0
x_26_28_2 0
x_26_29_0 0
x_26_29_1 0
x_26_29_2 0
x_26_30_0 0
x_26_30_1 0
x_26_30_2 0
x_27_28_0 0
x_27_28_1 -1.4988010832439613e-15
x_27_28_2 0
x_27_29_0 0
x_27_29_1 0
x_27_29_2 0
x_27_30_0 0
x_27_30_1 0
x_27_30_2 0
x_28_29_0 0
x_28_29_1 0
x_28_29_2 0
x_28_30_0 0
x_28_30_1 0
x_28_30_2 0
x_29_30_0 0
x_29_30_1 4.4270143106928117e-15
x_29_30_2 0
